200
1000
396
395
395
394
394
392
392
392
389
388
387
386
385
385
384
384
383
383
383
382
382
381
379
378
378
378
375
375
375
375
370
370
370
370
368
366
365
363
363
361
361
360
360
359
359
359
359
356
356
354
354
353
353
352
352
351
350
349
348
348
348
345
345
344
343
343
343
343
342
342
341
340
339
339
339
338
338
336
336
335
334
333
331
330
330
330
329
327
327
326
325
325
325
324
323
322
322
322
322
321
321
321
321
320
320
319
319
318
318
318
317
317
317
317
317
316
316
314
313
313
313
311
310
310
308
308
307
306
305
305
305
304
304
304
303
302
302
301
301
301
299
299
297
295
295
295
294
294
293
292
290
290
289
289
289
289
288
287
287
284
283
283
283
283
281
281
280
280
280
280
280
279
279
279
279
278
278
278
278
276
276
276
275
275
275
275
274
273
273
271
271
271
271
270
270
270
269
269
267
266
